(set-logic SLIA)
(define-fun func0  ((A String) (B String) (C String) (D String) (E String) ) String (str.replace (str.replace C  D  E ) A  B ))
(define-fun func1  ((A String) (B String) (C String) (D String) ) String (str.replace A  B  (str.++ C  D )))
(define-fun func2  ((A String) (B Int) ) String (str.substr A  0  B ))
(define-fun func3  ((A String) (B String) (C Int) ) String (str.substr A  0  (str.indexof A  B  C )))
(define-fun func4  ((A String) (B String) ) String (str.substr A  0  (str.indexof A  B  1 )))
(define-fun func5  ((A String) (B String) (C String) (D Int) ) String (str.substr A  0  (str.indexof B  C  D )))
(define-fun func6  ((A String) (B String) (C String) ) String (str.substr A  0  (str.indexof B  C  1 )))
(define-fun func7  ((A String) ) String (str.substr A  0  3 ))
(define-fun func8  ((A String) (B Int) (C String) (D Int) ) String (str.substr A  (+ 1  (str.indexof A  C  D )) B ))
(define-fun func9  ((A String) (B Int) (C String) (D String) (E Int) ) String (str.substr A  (+ 1  (str.indexof C  D  E )) B ))
(define-fun func10  ((A String) (B Int) (C Int) ) String (str.substr A  (+ 1  C ) B ))
(define-fun func11  ((A String) (B Int) (C Int) (D String) (E Int) ) String (str.substr A  (+ C  (str.indexof A  D  E )) B ))
(define-fun func12  ((A String) (B Int) (C Int) (D String) (E String) (F Int) ) String (str.substr A  (+ C  (str.indexof D  E  F )) B ))
(define-fun func13  ((A String) (B Int) (C Int) (D Int) ) String (str.substr A  (+ C  D ) B ))
(define-fun func14  ((A String) (B Int) (C Int) ) String (str.substr A  (+ B  C ) (str.len A )))
(define-fun func15  ((A String) ) String (str.substr A  4  3 ))
(define-fun func16  ((A String) (B Int) ) String (str.substr A  3  B ))
(define-fun func17  ((A String) (B Int) (C Int) ) String (str.substr A  (- (str.len A ) C ) B ))
(define-fun func18  ((A String) (B Int) (C Int) (D String) ) String (str.substr A  (- (str.len D ) C ) B ))
(define-fun func19  ((A String) (B Int) (C String) ) String (str.substr A  (- (str.len C ) 3 ) B ))
(define-fun func20  ((A String) (B Int) (C Int) ) String (str.substr A  (- C  3 ) B ))
(define-fun func21  ((A String) (B Int) (C Int) (D Int) ) String (str.substr A  (- C  D ) B ))
(define-fun func22  ((A String) (B Int) (C Int) ) String (str.substr A  (- B  C ) 3 ))
(define-fun func23  ((A String) (B Int) (C String) (D Int) ) String (str.substr A  B  (str.indexof A  C  D )))
(define-fun func24  ((A String) (B Int) (C String) ) String (str.substr A  B  (str.indexof A  C  1 )))
(define-fun func25  ((A String) (B Int) (C String) (D String) (E Int) ) String (str.substr A  B  (str.indexof C  D  E )))
(define-fun func26  ((A String) (B Int) (C String) (D String) ) String (str.substr A  B  (str.indexof C  D  1 )))
(define-fun func27  ((A String) (B Int) ) String (str.substr A  B  3 ))
(define-fun func28  ((A String) (B Int) ) String (str.substr A  B  (str.len A )))
(define-fun func29  ((A String) (B Int) (C Int) (D String) ) String (str.substr A  (+ B  C ) (str.len D )))
(define-fun func30  ((A String) (B Int) (C String) ) String (str.substr A  B  (str.len C )))
(define-fun func31  ((A String) (B String) ) Int (str.indexof A  B  1 ))
(define-fun func32  ((A String) (B String) ) Int (str.indexof A  B  0 ))
(define-fun func33  ((A String) (B String) (C Int) ) Int (+ 1  (str.indexof A  B  C )))
(define-fun func34  ((A Int) (B String) (C String) (D Int) ) Int (+ A  (str.indexof B  C  D )))
(define-fun func35  ((A String) (B String) (C String) ) String (str.++ A  (str.++ B  C )))
(define-fun func36  ((A String) (B String) (C String) (D String) ) String (str.++ A  (str.++ B  (str.++ C  D ))))
(define-fun func37  ((A String) (B String) (C String) (D String) (E String) ) String (str.++ A  (str.replace B  C  (str.++ D  E ))))
(define-fun func38  ((A Int) (B String) ) Int (- (str.len B ) A ))
(define-fun func39  ((A String) ) Int (- (str.len A ) 3 ))
(define-fun func40  ((A Int) ) Int (- A  3 ))
(synth-fun f ((_arg_0 String) (_arg_1 String)) Int
( (Start Int (ntInt))
 (ntString String (
	_arg_0 _arg_1 "" " " "_" 
	(func0 ntString ntString ntString ntString ntString)
	(func3 ntString ntString ntInt)
	(func4 ntString ntString)
	(func5 ntString ntString ntString ntInt)
	(func7 ntString)
	(func8 ntString ntInt ntString ntInt)
	(func11 ntString ntInt ntInt ntString ntInt)
	(func12 ntString ntInt ntInt ntString ntString ntInt)
	(func13 ntString ntInt ntInt ntInt)
	(func17 ntString ntInt ntInt)
	(func18 ntString ntInt ntInt ntString)
	(func23 ntString ntInt ntString ntInt)
	(func25 ntString ntInt ntString ntString ntInt)
	(func26 ntString ntInt ntString ntString)
	(func27 ntString ntInt)
	(func29 ntString ntInt ntInt ntString)
	(func30 ntString ntInt ntString)
	(func35 ntString ntString ntString)
	(func36 ntString ntString ntString ntString)
	(func37 ntString ntString ntString ntString ntString)
	(str.++ ntString ntString)
	(str.replace ntString ntString ntString)
	(str.at ntString ntInt)
	(ite ntBool ntString ntString)
))
 (ntInt Int (
	1 0 -1 1 2 3 
	(func31 ntString ntString)
	(func33 ntString ntString ntInt)
	(func38 ntInt ntString)
	(func39 ntString)
	(+ ntInt ntInt)
	(- ntInt ntInt)
	(str.to.int ntString)
	(ite ntBool ntInt ntInt)
	(str.indexof ntString ntString ntInt)
))
 (ntBool Bool (
	true false
	(= ntInt ntInt)
	(str.prefixof ntString ntString)
	(str.suffixof ntString ntString)
	(str.contains ntString ntString)
))
))
(constraint (= (f "An example string with _username in it RT _AwesomeUser says _username is awesome" "username") 2))
(constraint (= (f "An example string with _username in it RT _AwesomeUser says _username is awesome" "AwesomeUser") 1))
(constraint (= (f "An _example string with _example in it is awesome _example" "example") 3))
(check-synth)
